p cnf 146 676
c p weight 20 0 0
c p weight -20 1 0
c p weight 21 1.0 0
c p weight -21 1 0
c p weight 29 0 0
c p weight -29 1 0
c p weight 30 1.0 0
c p weight -30 1 0
c p weight 38 0 0
c p weight -38 1 0
c p weight 39 1.0 0
c p weight -39 1 0
c p weight 46 0 0
c p weight -46 1 0
c p weight 47 1.0 0
c p weight -47 1 0
c p weight 55 0 0
c p weight -55 1 0
c p weight 56 1.0 0
c p weight -56 1 0
c p weight 63 0 0
c p weight -63 1 0
c p weight 64 1.0 0
c p weight -64 1 0
c p weight 73 0 0
c p weight -73 1 0
c p weight 74 1.0 0
c p weight -74 1 0
c p weight 85 0 0
c p weight -85 1 0
c p weight 86 1.0 0
c p weight -86 1 0
c p weight 97 0 0
c p weight -97 1 0
c p weight 98 1.0 0
c p weight -98 1 0
c p weight 108 0 0
c p weight -108 1 0
c p weight 109 1.0 0
c p weight -109 1 0
c p weight 120 0 0
c p weight -120 1 0
c p weight 121 1.0 0
c p weight -121 1 0
c p weight 131 0 0
c p weight -131 1 0
c p weight 132 1.0 0
c p weight -132 1 0
c p weight 143 0 0
c p weight -143 1 0
c p weight 144 1.0 0
c p weight -144 1 0
16 -15 1 0
16 -15 2 0
-16 15 1 0
-16 15 2 0
16 15 -1 -2 0
-16 -15 -1 -2 0
17 1 -2 0
17 -1 2 0
-17 1 2 0
-17 -1 -2 0
18 19 -16 0
18 -16 17 0
-18 19 16 0
-18 16 17 0
18 -16 -1 0
-18 16 -1 0
18 -19 16 1 -17 0
-18 -19 -16 1 -17 0
19 -1 17 0
-19 1 17 0
-20 17 0
19 -20 -1 0
-19 -20 1 0
19 20 1 -17 0
-19 20 -1 -17 0
-21 17 0
19 -21 1 0
-19 -21 -1 0
19 21 -1 -17 0
-19 21 1 -17 0
22 -18 19 0
22 -18 17 0
-22 18 19 0
-22 18 17 0
22 18 -19 -17 0
-22 -18 -19 -17 0
23 19 -17 0
23 -19 17 0
-23 19 17 0
-23 -19 -17 0
24 22 -23 0
24 -22 23 0
-24 22 23 0
-24 -22 -23 0
25 -24 3 0
25 -24 4 0
-25 24 3 0
-25 24 4 0
25 24 -3 -4 0
-25 -24 -3 -4 0
26 3 -4 0
26 -3 4 0
-26 3 4 0
-26 -3 -4 0
27 28 -25 0
27 -25 26 0
-27 28 25 0
-27 25 26 0
27 -25 -3 0
-27 25 -3 0
27 -28 25 3 -26 0
-27 -28 -25 3 -26 0
28 -3 26 0
-28 3 26 0
-29 26 0
28 -29 -3 0
-28 -29 3 0
28 29 3 -26 0
-28 29 -3 -26 0
-30 26 0
28 -30 3 0
-28 -30 -3 0
28 30 -3 -26 0
-28 30 3 -26 0
31 -27 28 0
31 -27 26 0
-31 27 28 0
-31 27 26 0
31 27 -28 -26 0
-31 -27 -28 -26 0
32 28 -26 0
32 -28 26 0
-32 28 26 0
-32 -28 -26 0
33 31 -32 0
33 -31 32 0
-33 31 32 0
-33 -31 -32 0
34 -33 5 0
34 -33 6 0
-34 33 5 0
-34 33 6 0
34 33 -5 -6 0
-34 -33 -5 -6 0
35 5 -6 0
35 -5 6 0
-35 5 6 0
-35 -5 -6 0
36 37 -34 0
36 -34 35 0
-36 37 34 0
-36 34 35 0
36 -34 -5 0
-36 34 -5 0
36 -37 34 5 -35 0
-36 -37 -34 5 -35 0
37 -5 35 0
-37 5 35 0
-38 35 0
37 -38 -5 0
-37 -38 5 0
37 38 5 -35 0
-37 38 -5 -35 0
-39 35 0
37 -39 5 0
-37 -39 -5 0
37 39 -5 -35 0
-37 39 5 -35 0
40 -36 37 0
40 -36 35 0
-40 36 37 0
-40 36 35 0
40 36 -37 -35 0
-40 -36 -37 -35 0
41 37 -35 0
41 -37 35 0
-41 37 35 0
-41 -37 -35 0
42 -40 7 0
42 -40 8 0
-42 40 7 0
-42 40 8 0
42 40 -7 -8 0
-42 -40 -7 -8 0
43 7 -8 0
43 -7 8 0
-43 7 8 0
-43 -7 -8 0
44 45 -42 0
44 -42 43 0
-44 45 42 0
-44 42 43 0
44 -42 -7 0
-44 42 -7 0
44 -45 42 7 -43 0
-44 -45 -42 7 -43 0
45 -7 43 0
-45 7 43 0
-46 43 0
45 -46 -7 0
-45 -46 7 0
45 46 7 -43 0
-45 46 -7 -43 0
-47 43 0
45 -47 7 0
-45 -47 -7 0
45 47 -7 -43 0
-45 47 7 -43 0
48 -44 45 0
48 -44 43 0
-48 44 45 0
-48 44 43 0
48 44 -45 -43 0
-48 -44 -45 -43 0
49 45 -43 0
49 -45 43 0
-49 45 43 0
-49 -45 -43 0
50 48 -49 0
50 -48 49 0
-50 48 49 0
-50 -48 -49 0
51 -50 9 0
51 -50 10 0
-51 50 9 0
-51 50 10 0
51 50 -9 -10 0
-51 -50 -9 -10 0
52 9 -10 0
52 -9 10 0
-52 9 10 0
-52 -9 -10 0
53 54 -51 0
53 -51 52 0
-53 54 51 0
-53 51 52 0
53 -51 -9 0
-53 51 -9 0
53 -54 51 9 -52 0
-53 -54 -51 9 -52 0
54 -9 52 0
-54 9 52 0
-55 52 0
54 -55 -9 0
-54 -55 9 0
54 55 9 -52 0
-54 55 -9 -52 0
-56 52 0
54 -56 9 0
-54 -56 -9 0
54 56 -9 -52 0
-54 56 9 -52 0
57 -53 54 0
57 -53 52 0
-57 53 54 0
-57 53 52 0
57 53 -54 -52 0
-57 -53 -54 -52 0
58 54 -52 0
58 -54 52 0
-58 54 52 0
-58 -54 -52 0
59 -57 11 0
59 -57 12 0
-59 57 11 0
-59 57 12 0
59 57 -11 -12 0
-59 -57 -11 -12 0
60 11 -12 0
60 -11 12 0
-60 11 12 0
-60 -11 -12 0
61 62 -59 0
61 -59 60 0
-61 62 59 0
-61 59 60 0
61 -59 -11 0
-61 59 -11 0
61 -62 59 11 -60 0
-61 -62 -59 11 -60 0
62 -11 60 0
-62 11 60 0
-63 60 0
62 -63 -11 0
-62 -63 11 0
62 63 11 -60 0
-62 63 -11 -60 0
-64 60 0
62 -64 11 0
-62 -64 -11 0
62 64 -11 -60 0
-62 64 11 -60 0
65 -61 62 0
65 -61 60 0
-65 61 62 0
-65 61 60 0
65 61 -62 -60 0
-65 -61 -62 -60 0
66 62 -60 0
66 -62 60 0
-66 62 60 0
-66 -62 -60 0
67 65 -66 0
67 -65 66 0
-67 65 66 0
-67 -65 -66 0
68 67 -14 0
68 -67 14 0
-68 67 14 0
-68 -67 -14 0
69 -68 13 0
69 -68 14 0
-69 68 13 0
-69 68 14 0
69 68 -13 -14 0
-69 -68 -13 -14 0
70 13 -14 0
70 -13 14 0
-70 13 14 0
-70 -13 -14 0
71 72 -69 0
71 -69 70 0
-71 72 69 0
-71 69 70 0
71 -69 -13 0
-71 69 -13 0
71 -72 69 13 -70 0
-71 -72 -69 13 -70 0
72 -13 70 0
-72 13 70 0
-73 70 0
72 -73 -13 0
-72 -73 13 0
72 73 13 -70 0
-72 73 -13 -70 0
-74 70 0
72 -74 13 0
-72 -74 -13 0
72 74 -13 -70 0
-72 74 13 -70 0
75 -71 72 0
75 -71 70 0
-75 71 72 0
-75 71 70 0
75 71 -72 -70 0
-75 -71 -72 -70 0
76 72 -70 0
76 -72 70 0
-76 72 70 0
-76 -72 -70 0
77 -75 19 0
77 -75 76 0
-77 75 19 0
-77 75 76 0
77 -75 72 -23 0
77 -75 -72 23 0
-77 75 72 -23 0
-77 75 -72 23 0
77 75 -19 72 23 -76 0
77 75 -19 -72 -23 -76 0
-77 -75 -19 72 23 -76 0
-77 -75 -19 -72 -23 -76 0
79 19 -72 0
79 -19 72 0
-79 19 72 0
-79 -19 -72 0
78 23 -76 0
78 -23 76 0
-78 23 76 0
-78 -23 -76 0
80 77 -78 0
80 -77 78 0
-80 77 78 0
-80 -77 -78 0
81 -80 19 0
81 -80 78 0
-81 80 19 0
-81 80 78 0
81 80 -19 -78 0
-81 -80 -19 -78 0
82 19 -78 0
82 -19 78 0
-82 19 78 0
-82 -19 -78 0
83 84 -81 0
83 -81 82 0
-83 84 81 0
-83 81 82 0
83 -81 -19 0
-83 81 -19 0
83 -84 81 19 -82 0
-83 -84 -81 19 -82 0
84 -19 82 0
-84 19 82 0
-85 82 0
84 -85 -19 0
-84 -85 19 0
84 85 19 -82 0
-84 85 -19 -82 0
-86 82 0
84 -86 19 0
-84 -86 -19 0
84 86 -19 -82 0
-84 86 19 -82 0
87 -83 84 0
87 -83 82 0
-87 83 84 0
-87 83 82 0
87 83 -84 -82 0
-87 -83 -84 -82 0
88 84 -82 0
88 -84 82 0
-88 84 82 0
-88 -84 -82 0
89 -87 28 0
89 -87 76 0
-89 87 28 0
-89 87 76 0
89 -87 79 -32 0
89 -87 -79 32 0
-89 87 79 -32 0
-89 87 -79 32 0
89 87 -28 79 32 -76 0
89 87 -28 -79 -32 -76 0
-89 -87 -28 79 32 -76 0
-89 -87 -28 -79 -32 -76 0
91 28 -79 0
91 -28 79 0
-91 28 79 0
-91 -28 -79 0
90 32 -76 0
90 -32 76 0
-90 32 76 0
-90 -32 -76 0
92 89 -90 0
92 -89 90 0
-92 89 90 0
-92 -89 -90 0
93 -92 28 0
93 -92 90 0
-93 92 28 0
-93 92 90 0
93 92 -28 -90 0
-93 -92 -28 -90 0
94 28 -90 0
94 -28 90 0
-94 28 90 0
-94 -28 -90 0
95 96 -93 0
95 -93 94 0
-95 96 93 0
-95 93 94 0
95 -93 -28 0
-95 93 -28 0
95 -96 93 28 -94 0
-95 -96 -93 28 -94 0
96 -28 94 0
-96 28 94 0
-97 94 0
96 -97 -28 0
-96 -97 28 0
96 97 28 -94 0
-96 97 -28 -94 0
-98 94 0
96 -98 28 0
-96 -98 -28 0
96 98 -28 -94 0
-96 98 28 -94 0
99 -95 96 0
99 -95 94 0
-99 95 96 0
-99 95 94 0
99 95 -96 -94 0
-99 -95 -96 -94 0
100 96 -94 0
100 -96 94 0
-100 96 94 0
-100 -96 -94 0
101 -99 37 0
101 -99 76 0
-101 99 37 0
-101 99 76 0
101 -99 91 -41 0
101 -99 -91 41 0
-101 99 91 -41 0
-101 99 -91 41 0
101 99 -37 91 41 -76 0
101 99 -37 -91 -41 -76 0
-101 -99 -37 91 41 -76 0
-101 -99 -37 -91 -41 -76 0
103 37 -91 0
103 -37 91 0
-103 37 91 0
-103 -37 -91 0
102 41 -76 0
102 -41 76 0
-102 41 76 0
-102 -41 -76 0
104 -101 37 0
104 -101 102 0
-104 101 37 0
-104 101 102 0
104 101 -37 -102 0
-104 -101 -37 -102 0
105 37 -102 0
105 -37 102 0
-105 37 102 0
-105 -37 -102 0
106 107 -104 0
106 -104 105 0
-106 107 104 0
-106 104 105 0
106 -104 -37 0
-106 104 -37 0
106 -107 104 37 -105 0
-106 -107 -104 37 -105 0
107 -37 105 0
-107 37 105 0
-108 105 0
107 -108 -37 0
-107 -108 37 0
107 108 37 -105 0
-107 108 -37 -105 0
-109 105 0
107 -109 37 0
-107 -109 -37 0
107 109 -37 -105 0
-107 109 37 -105 0
110 -106 107 0
110 -106 105 0
-110 106 107 0
-110 106 105 0
110 106 -107 -105 0
-110 -106 -107 -105 0
111 107 -105 0
111 -107 105 0
-111 107 105 0
-111 -107 -105 0
112 -110 45 0
112 -110 76 0
-112 110 45 0
-112 110 76 0
112 -110 103 -49 0
112 -110 -103 49 0
-112 110 103 -49 0
-112 110 -103 49 0
112 110 -45 103 49 -76 0
112 110 -45 -103 -49 -76 0
-112 -110 -45 103 49 -76 0
-112 -110 -45 -103 -49 -76 0
114 45 -103 0
114 -45 103 0
-114 45 103 0
-114 -45 -103 0
113 49 -76 0
113 -49 76 0
-113 49 76 0
-113 -49 -76 0
115 112 -113 0
115 -112 113 0
-115 112 113 0
-115 -112 -113 0
116 -115 45 0
116 -115 113 0
-116 115 45 0
-116 115 113 0
116 115 -45 -113 0
-116 -115 -45 -113 0
117 45 -113 0
117 -45 113 0
-117 45 113 0
-117 -45 -113 0
118 119 -116 0
118 -116 117 0
-118 119 116 0
-118 116 117 0
118 -116 -45 0
-118 116 -45 0
118 -119 116 45 -117 0
-118 -119 -116 45 -117 0
119 -45 117 0
-119 45 117 0
-120 117 0
119 -120 -45 0
-119 -120 45 0
119 120 45 -117 0
-119 120 -45 -117 0
-121 117 0
119 -121 45 0
-119 -121 -45 0
119 121 -45 -117 0
-119 121 45 -117 0
122 -118 119 0
122 -118 117 0
-122 118 119 0
-122 118 117 0
122 118 -119 -117 0
-122 -118 -119 -117 0
123 119 -117 0
123 -119 117 0
-123 119 117 0
-123 -119 -117 0
124 -122 54 0
124 -122 76 0
-124 122 54 0
-124 122 76 0
124 -122 114 -58 0
124 -122 -114 58 0
-124 122 114 -58 0
-124 122 -114 58 0
124 122 -54 114 58 -76 0
124 122 -54 -114 -58 -76 0
-124 -122 -54 114 58 -76 0
-124 -122 -54 -114 -58 -76 0
126 54 -114 0
126 -54 114 0
-126 54 114 0
-126 -54 -114 0
125 58 -76 0
125 -58 76 0
-125 58 76 0
-125 -58 -76 0
127 -124 54 0
127 -124 125 0
-127 124 54 0
-127 124 125 0
127 124 -54 -125 0
-127 -124 -54 -125 0
128 54 -125 0
128 -54 125 0
-128 54 125 0
-128 -54 -125 0
129 130 -127 0
129 -127 128 0
-129 130 127 0
-129 127 128 0
129 -127 -54 0
-129 127 -54 0
129 -130 127 54 -128 0
-129 -130 -127 54 -128 0
130 -54 128 0
-130 54 128 0
-131 128 0
130 -131 -54 0
-130 -131 54 0
130 131 54 -128 0
-130 131 -54 -128 0
-132 128 0
130 -132 54 0
-130 -132 -54 0
130 132 -54 -128 0
-130 132 54 -128 0
133 -129 130 0
133 -129 128 0
-133 129 130 0
-133 129 128 0
133 129 -130 -128 0
-133 -129 -130 -128 0
134 130 -128 0
134 -130 128 0
-134 130 128 0
-134 -130 -128 0
135 -133 62 0
135 -133 76 0
-135 133 62 0
-135 133 76 0
135 -133 126 -66 0
135 -133 -126 66 0
-135 133 126 -66 0
-135 133 -126 66 0
135 133 -62 126 66 -76 0
135 133 -62 -126 -66 -76 0
-135 -133 -62 126 66 -76 0
-135 -133 -62 -126 -66 -76 0
137 62 -126 0
137 -62 126 0
-137 62 126 0
-137 -62 -126 0
136 66 -76 0
136 -66 76 0
-136 66 76 0
-136 -66 -76 0
138 135 -136 0
138 -135 136 0
-138 135 136 0
-138 -135 -136 0
139 -138 62 0
139 -138 136 0
-139 138 62 0
-139 138 136 0
139 138 -62 -136 0
-139 -138 -62 -136 0
140 62 -136 0
140 -62 136 0
-140 62 136 0
-140 -62 -136 0
141 142 -139 0
141 -139 140 0
-141 142 139 0
-141 139 140 0
141 -139 -62 0
-141 139 -62 0
141 -142 139 62 -140 0
-141 -142 -139 62 -140 0
142 -62 140 0
-142 62 140 0
-143 140 0
142 -143 -62 0
-142 -143 62 0
142 143 62 -140 0
-142 143 -62 -140 0
-144 140 0
142 -144 62 0
-142 -144 -62 0
142 144 -62 -140 0
-142 144 62 -140 0
145 -141 142 0
145 -141 140 0
-145 141 142 0
-145 141 140 0
145 141 -142 -140 0
-145 -141 -142 -140 0
146 142 -140 0
146 -142 140 0
-146 142 140 0
-146 -142 -140 0
